NAME : M1.398593200.tour
COMMENT : Length = 398593200
COMMENT : Found by LKH [Keld Helsgaun] Mon Dec 10 21:29:33 2018
TYPE : TOUR
DIMENSION : 136
TOUR_SECTION
1
119
70
99
74
42
94
39
106
30
24
15
2
127
40
120
111
87
53
37
118
31
136
100
105
72
79
71
97
62
48
58
55
78
109
19
16
9
132
102
131
49
41
60
116
91
92
117
101
50
35
59
124
3
20
26
12
135
64
103
126
52
107
76
89
56
95
98
17
129
123
75
29
61
110
93
28
125
81
114
65
108
134
77
67
121
96
38
43
51
66
33
57
80
11
25
4
14
21
10
130
86
83
27
84
113
104
47
112
23
6
18
133
115
54
69
45
44
122
34
32
7
13
5
8
128
85
36
82
73
88
63
46
68
90
22
-1
EOF
